
Gurobi 13.0.0 (linux64) logging started Thu Jan 15 00:22:18 2026

Set parameter LogFile to value "../experiments/network-n_30_s_1_rp_0-app_set-id_33_16_apps/submip_40_epr1_model_gurobi.log"
Set parameter TimeLimit to value 8.8889010253398737e+02
Gurobi Optimizer version 13.0.0 build v13.0.0rc1 (linux64 - "Ubuntu 24.04.3 LTS")

CPU model: Intel(R) Core(TM) Ultra 7 165H, instruction set [SSE2|AVX|AVX2]
Thread count: 22 physical cores, 22 logical processors, using up to 22 threads

Non-default parameters:
TimeLimit  8.8889010253398737e+02
LogToConsole  0

Academic license 2539022 - for non-commercial use only - registered to al___@studenti.unimi.it
Optimize a model with 9476 rows, 3120 columns and 23272 nonzeros (Min)
Model fingerprint: 0xba012c25
Model has 3120 linear objective coefficients
Model has 100 quadratic constraints
Variable types: 0 continuous, 3120 integer (3120 binary)
Coefficient statistics:
  Matrix range     [1e+00, 9e+02]
  QMatrix range    [5e+01, 2e+02]
  Objective range  [1e+01, 2e+02]
  Bounds range     [1e+00, 1e+00]
  RHS range        [1e+00, 1e+09]
  QRHS range       [1e+02, 6e+02]

MIP start from previous solve did not produce a new incumbent solution
MIP start from previous solve violates constraint fixed_app_9_microservice_8 by 1.000000000

Presolve removed 9217 rows and 2459 columns
Presolve time: 0.03s
Presolved: 3396 rows, 3700 columns, 21409 nonzeros
Variable types: 0 continuous, 3700 integer (3700 binary)

Root relaxation: objective 3.246457e+03, 495 iterations, 0.01 seconds (0.02 work units)

    Nodes    |    Current Node    |     Objective Bounds      |     Work
 Expl Unexpl |  Obj  Depth IntInf | Incumbent    BestBd   Gap | It/Node Time

     0     0 3246.45682    0   89          - 3246.45682      -     -    0s
     0     0 3290.68880    0  128          - 3290.68880      -     -    0s
     0     0 3301.23318    0  118          - 3301.23318      -     -    0s
     0     0 3301.23962    0  120          - 3301.23962      -     -    0s
     0     0 3331.40140    0  152          - 3331.40140      -     -    0s
     0     0 3334.24034    0  157          - 3334.24034      -     -    0s
     0     0 3334.73104    0  151          - 3334.73104      -     -    0s
H    0     0                    3715.0000000 3334.73104  10.2%     -    0s
H    0     0                    3640.0000000 3334.73104  8.39%     -    0s
     0     0 3359.02407    0  186 3640.00000 3359.02407  7.72%     -    0s
     0     0 3359.16235    0  182 3640.00000 3359.16235  7.72%     -    0s
     0     0 3359.16235    0  182 3640.00000 3359.16235  7.72%     -    0s
     0     2 3359.33003    0  182 3640.00000 3359.33003  7.71%     -    0s
H  525   320                    3592.0000000 3407.93695  5.12%  92.0    1s
  2180   333     cutoff   14      3592.00000 3465.85033  3.51%  83.6    5s

Cutting planes:
  Lift-and-project: 9
  Cover: 186
  Implied bound: 2
  Clique: 24
  MIR: 119
  Knapsack: 12
  StrongCG: 45
  GUB cover: 8
  Inf proof: 5
  Zero half: 3
  RLT: 126
  Relax-and-lift: 32
  BQP: 66

Explored 3326 nodes (250151 simplex iterations) in 6.15 seconds (5.68 work units)
Thread count was 22 (of 22 available processors)

Solution count 3: 3592 3640 3715 

Optimal solution found (tolerance 1.00e-04)
Best objective 3.592000000000e+03, best bound 3.592000000000e+03, gap 0.0000%

User-callback calls 8734, time in user-callback 0.01 sec
